sat
(model 
  (define-fun x () Int
    (- 1))
  (define-fun f ((x!1 Int)) Int
    (ite (= x!1 (- 1)) 20
    (ite (= x!1 0) 21
      20)))
)
(- 1)
9
true
21
21
20
y
0
0
z
20
(ite (= z 1) 21 20)
(error "evaluator failed: max. steps exceeded")
